InboundTrucks  = 12;
OutboundTrucks = 8;
InboundDoors   = 4;
OutboundDoors  = 4;
ReleaseTime    = [100,86,10,114,111,72,73,68,62,61,16,112];
UnloadTime     = [40,33,36,12,31,38,22,42,12,11,36,15];
LoadTime       = [12,9,27,25,10,27,10,20];
TransferTime   = [| 11,0,0,39,0,0,34,13 | 41,39,16,0,0,16,33,0 | 0,0,0,29,0,38,41,48 | 0,43,0,0,0,32,28,0 | 41,27,31,37,0,30,0,11 | 0,0,0,42,0,0,46,0 | 0,18,30,23,40,31,0,0 | 37,43,35,0,0,0,49,0 | 0,0,17,0,0,35,0,25 | 0,0,37,36,15,0,28,0 | 0,0,0,44,43,0,49,0 | 10,0,0,28,22,0,14,50 |];
